6783
665
1201
4925
3643
4627
7981
4446
2985
2686
9579
9049
3374
7199
8987
5022
7166
6204
8256
6494
5051
4039
5738
9739
4916
4900
8383
3125
5759
5276
4387
750
7515
9983
2630
1321
3965
1177
1145
2986
2405
10118
666
9744
6219
3542
6698
616
4258
7216
